Version identifier: 22.1.0.0 | 2022-03-09 | 1a383f8ce
CPXPARAM_Read_DataCheck                          1
CPXPARAM_TimeLimit                               600
Tried aggregator 4 times.
MIP Presolve eliminated 101574 rows and 9178 columns.
MIP Presolve modified 1178 coefficients.
Aggregator did 94518 substitutions.
Reduced MIP has 9925 rows, 96374 columns, and 202885 nonzeros.
Reduced MIP has 96336 binaries, 38 generals, 0 SOSs, and 0 indicators.
Presolve time = 1.27 sec. (1316.92 ticks)
Tried aggregator 1 time.
Detecting symmetries...
Reduced MIP has 9925 rows, 96374 columns, and 202885 nonzeros.
Reduced MIP has 96336 binaries, 38 generals, 0 SOSs, and 0 indicators.
Presolve time = 0.22 sec. (147.75 ticks)
Probing fixed 59 vars, tightened 0 bounds.
Probing time = 0.52 sec. (48.76 ticks)
Clique table members: 194974.
MIP emphasis: balance optimality and feasibility.
MIP search method: dynamic search.
Parallel mode: deterministic, using up to 8 threads.
Root relaxation solution time = 1.92 sec. (786.95 ticks)

        Nodes                                         Cuts/
   Node  Left     Objective  IInf  Best Integer    Best Bound    ItCnt     Gap

      0     0       38.4329  7716                     38.4329       25         
      0     0       65.0000  1130                    Cuts: 40    19423         
      0     0       65.0000   834                    Cuts: 73    30197         
      0     0       65.0000   687                ZeroHalf: 64    39943         
      0     0       65.0000   685                ZeroHalf: 39    53414         
      0     0       65.0000   766                ZeroHalf: 31    67947         
Heuristic still looking.
Heuristic still looking.
Heuristic still looking.
      0     2       65.0000   532                     65.0000    67947         
Elapsed time = 534.15 sec. (279791.54 ticks, tree = 0.02 MB, solutions = 0)
      1     3       65.0000   645                     65.0000    88086         
      2     3       65.0000   553                     65.0000    90153         

Clique cuts applied:  3
Zero-half cuts applied:  114
Lift and project cuts applied:  3
Gomory fractional cuts applied:  30

Root node processing (before b&c):
  Real time             =  533.71 sec. (279620.95 ticks)
Parallel b&c, 8 threads:
  Real time             =   66.39 sec. (30175.29 ticks)
  Sync time (average)   =   44.22 sec.
  Wait time (average)   =    0.00 sec.
                          ------------
Total (root+branch&cut) =  600.10 sec. (309796.23 ticks)
